NAME          BLANK   
ROWS
 N  OBJROW
 L  R0000000
COLUMNS
    C0000000  OBJROW     -276.         R0000000  146.        
    C0000001  OBJROW     -398.         R0000000  217.        
    C0000002  OBJROW     -420.         R0000000  930.        
    C0000003  OBJROW     -938.         R0000000  888.        
    C0000004  OBJROW     -424.         R0000000  73.         
    C0000005  OBJROW     -823.         R0000000  72.         
    C0000006  OBJROW     -341.         R0000000  969.        
    C0000007  OBJROW     -838.         R0000000  912.        
    C0000008  OBJROW     -193.         R0000000  965.        
    C0000009  OBJROW     -648.         R0000000  652.        
    C0000010  OBJROW     -971.         R0000000  654.        
    C0000011  OBJROW     -894.         R0000000  765.        
    C0000012  OBJROW     -708.         R0000000  140.        
    C0000013  OBJROW     -244.         R0000000  716.        
    C0000014  OBJROW     -73.          R0000000  292.        
    C0000015  OBJROW     -362.         R0000000  690.        
    C0000016  OBJROW     -282.         R0000000  627.        
    C0000017  OBJROW     -946.         R0000000  985.        
    C0000018  OBJROW     -850.         R0000000  20.         
    C0000019  OBJROW     -474.         R0000000  838.        
RHS
    RHS       R0000000  16386.      
BOUNDS
 BV BOUND     C0000000  1.          
 BV BOUND     C0000001  1.          
 BV BOUND     C0000002  1.          
 BV BOUND     C0000003  1.          
 BV BOUND     C0000004  1.          
 BV BOUND     C0000005  1.          
 BV BOUND     C0000006  1.          
 BV BOUND     C0000007  1.          
 BV BOUND     C0000008  1.          
 BV BOUND     C0000009  1.          
 BV BOUND     C0000010  1.          
 BV BOUND     C0000011  1.          
 BV BOUND     C0000012  1.          
 BV BOUND     C0000013  1.          
 BV BOUND     C0000014  1.          
 BV BOUND     C0000015  1.          
 BV BOUND     C0000016  1.          
 BV BOUND     C0000017  1.          
 BV BOUND     C0000018  1.          
 BV BOUND     C0000019  1.          
ENDATA
